Maximize
  0 x0 + 0 x1 - 11 x2 + 27 x3 + 0 x4 + 0 x5 + 0 x6 - 43 x7 + 0 x8 + 23 x9
   + 0 x10 + 22 x11 + 0 x12 - 41 x13 + 0 x14 + 13 x15 + 0 x16 + 0 x17
   + 0 x18 + 0 x19 + 0 x20 + 27 x21 - 7 x22 + 6 x23 - 6 x24 + 0 x25 + 0 x26
   + 0 x27 + 0 x28 + 0 x29 + 10 x30 + 0 x31 + 0 x32 + 0 x33 - 36 x34
   + 0 x35 + 0 x36 + 0 x37 + 17 x38 + 0 x39 + 17 x40 + 45 x41 + 0 x42
   + 0 x43 - 37 x44 - 33 x45 + 0 x46 + 0 x47 + 0 x48 + 0 x49 + 0 x50
   + 0 x51 - 17 x52 + 0 x53 + 46 x54 + 0 x55 - x56 + 0 x57 + 48 x58
   - 49 x59 + 0 x60 - 27 x61 + 0 x62 - 33 x63 + 47 x64 + 0 x65 + 0 x66
   - 42 x67 + 5 x68 + 0 x69 + 0 x70 + 0 x71 + 0 x72 - 32 x73 + 0 x74
   + 25 x75 + 0 x76 - 41 x77 - 37 x78 + 0 x79 + 41 x80 + 0 x81 + 6 x82
   + 0 x83 + 0 x84 + 0 x85 + 0 x86 - 45 x87 + 0 x88 + 21 x89 + 2 x90
   + 0 x91 + 23 x92 + 0 x93 - 20 x94 + 42 x95 + 14 x96 + 0 x97 - 49 x98
   - 6 x99 + [ x0 ^2 + 92 x0 * x3 - 32 x0 * x5 - 82 x0 * x7 + 38 x0 * x9
   + 70 x0 * x10 + 30 x0 * x14 + 14 x0 * x16 + 46 x0 * x17 + 38 x0 * x18
   - 98 x0 * x19 - 82 x0 * x22 + 2 x0 * x26 + 6 x0 * x30 - 24 x0 * x31
   + 2 x0 * x33 - 16 x0 * x34 + 86 x0 * x35 + 46 x0 * x40 + 90 x0 * x46
   + 36 x0 * x48 - 70 x0 * x51 - 20 x0 * x52 + 92 x0 * x54 - 82 x0 * x55
   - 54 x0 * x57 + 42 x0 * x58 - 40 x0 * x63 - 72 x0 * x64 + 10 x0 * x66
   - 34 x0 * x67 - 12 x0 * x70 + 20 x0 * x71 - 66 x0 * x74 - 94 x0 * x77
   + 38 x0 * x78 - 46 x0 * x80 - 60 x0 * x81 + 62 x0 * x84 - 78 x0 * x85
   - 6 x0 * x91 + 76 x0 * x93 + 36 x0 * x94 + 16 x0 * x98 - 18 x0 * x99
   + 94 x1 * x2 - 96 x1 * x3 + 24 x1 * x5 + 34 x1 * x11 + 44 x1 * x14
   - 16 x1 * x15 - 32 x1 * x17 + 72 x1 * x19 - 72 x1 * x20 - 10 x1 * x21
   - 58 x1 * x22 - 2 x1 * x23 + 36 x1 * x24 + 64 x1 * x29 + 64 x1 * x30
   + 60 x1 * x32 - 90 x1 * x35 + 26 x1 * x37 - 64 x1 * x40 - 6 x1 * x41
   - 88 x1 * x42 + 50 x1 * x44 - 14 x1 * x45 - 60 x1 * x46 - 66 x1 * x50
   - 32 x1 * x52 + 46 x1 * x53 + 14 x1 * x57 + 6 x1 * x60 - 30 x1 * x63
   - 8 x1 * x64 - 78 x1 * x65 - 54 x1 * x66 + 50 x1 * x70 - 62 x1 * x74
   + 68 x1 * x76 - 36 x1 * x78 + 32 x1 * x82 - 86 x1 * x83 + 56 x1 * x85
   - 16 x1 * x86 - 90 x1 * x87 + 96 x1 * x91 + 2 x1 * x92 + 44 x1 * x93
   - 96 x1 * x94 - 28 x1 * x95 + 14 x1 * x96 + 2 x1 * x98 - 24 x1 * x99
   - 18 x2 * x7 - 52 x2 * x8 + 10 x2 * x12 + 72 x2 * x13 - 4 x2 * x14
   + 52 x2 * x15 + 58 x2 * x21 - 50 x2 * x23 - 6 x2 * x25 + 18 x2 * x26
   + 28 x2 * x27 + 4 x2 * x28 - 38 x2 * x31 - 42 x2 * x33 + 70 x2 * x34
   - 16 x2 * x36 - 66 x2 * x37 + 68 x2 * x39 - 32 x2 * x40 + 84 x2 * x42
   + 16 x2 * x43 - 4 x2 * x45 - 70 x2 * x47 + 64 x2 * x50 - 22 x2 * x54
   - 66 x2 * x55 - 38 x2 * x57 + 68 x2 * x58 + 10 x2 * x59 + 66 x2 * x63
   - 62 x2 * x67 + 36 x2 * x69 - 50 x2 * x71 - 2 x2 * x72 + 86 x2 * x73
   + 66 x2 * x74 - 90 x2 * x75 - 82 x2 * x76 - 48 x2 * x77 - 26 x2 * x79
   + 78 x2 * x81 + 38 x2 * x82 + 40 x2 * x84 + 44 x2 * x88 - 46 x2 * x89
   + 60 x2 * x93 + 6 x2 * x96 + 80 x3 * x7 - 56 x3 * x8 + 8 x3 * x15
   + 40 x3 * x17 + 86 x3 * x18 - 56 x3 * x20 + 24 x3 * x23 - 14 x3 * x24
   - 98 x3 * x25 - 70 x3 * x29 - 82 x3 * x33 - 6 x3 * x34 - 96 x3 * x39
   - 20 x3 * x40 - 94 x3 * x42 + 54 x3 * x43 - 4 x3 * x44 + 78 x3 * x46
   + 24 x3 * x50 - 98 x3 * x54 - 2 x3 * x55 - 56 x3 * x57 - 92 x3 * x58
   + 78 x3 * x59 - 48 x3 * x61 - 92 x3 * x63 - 12 x3 * x72 + 18 x3 * x73
   - 50 x3 * x80 - 72 x3 * x81 + 78 x3 * x82 - 30 x3 * x85 + 94 x3 * x86
   - 86 x3 * x88 + 36 x3 * x93 - 8 x3 * x94 + 60 x3 * x95 - 10 x3 * x98
   + 32 x4 ^2 - 4 x4 * x5 + 20 x4 * x6 + 6 x4 * x7 - 74 x4 * x8
   - 36 x4 * x11 + 10 x4 * x14 - 74 x4 * x17 - 86 x4 * x18 - 34 x4 * x19
   - 54 x4 * x21 - 62 x4 * x22 + 36 x4 * x23 - 36 x4 * x24 + 2 x4 * x31
   + 90 x4 * x33 + 72 x4 * x35 - 80 x4 * x37 + 80 x4 * x39 + 22 x4 * x40
   - 54 x4 * x42 - 16 x4 * x44 + 8 x4 * x45 - 44 x4 * x50 - 46 x4 * x51
   - 14 x4 * x53 - 98 x4 * x54 + 34 x4 * x57 - 4 x4 * x63 - 94 x4 * x66
   + 68 x4 * x71 - 86 x4 * x72 - 86 x4 * x73 - 10 x4 * x74 + 2 x4 * x75
   - 56 x4 * x80 + 82 x4 * x81 + 18 x4 * x83 + 16 x4 * x85 + 50 x4 * x87
   - 40 x4 * x88 + 56 x4 * x89 - 86 x4 * x98 - 24 x5 ^2 + 78 x5 * x6
   - 94 x5 * x7 + 34 x5 * x8 - 12 x5 * x12 + 14 x5 * x13 - 24 x5 * x14
   - 40 x5 * x19 + 94 x5 * x21 + 36 x5 * x28 - 18 x5 * x29 - 54 x5 * x30
   - 2 x5 * x32 - 50 x5 * x33 + 22 x5 * x34 + 96 x5 * x35 - 90 x5 * x36
   + 26 x5 * x41 - 62 x5 * x44 - 18 x5 * x47 - 48 x5 * x50 + 70 x5 * x51
   - 6 x5 * x53 - 50 x5 * x54 + 50 x5 * x55 - 26 x5 * x59 + 2 x5 * x60
   - 96 x5 * x62 + 34 x5 * x64 - 14 x5 * x66 - 84 x5 * x67 - 46 x5 * x68
   - 16 x5 * x69 + 6 x5 * x71 - 32 x5 * x72 + 40 x5 * x73 - 38 x5 * x74
   + 24 x5 * x79 + 74 x5 * x82 - 32 x5 * x84 - 38 x5 * x89 - 58 x5 * x91
   - 4 x5 * x94 - 44 x5 * x95 + 8 x5 * x99 + 33 x6 ^2 - 2 x6 * x7
   + 70 x6 * x10 - 24 x6 * x11 + 86 x6 * x12 + 38 x6 * x19 - 82 x6 * x21
   + 42 x6 * x22 - 28 x6 * x23 + 6 x6 * x28 + 52 x6 * x29 + 50 x6 * x30
   + 38 x6 * x31 + 30 x6 * x33 + 34 x6 * x36 + 76 x6 * x37 - 66 x6 * x41
   - 98 x6 * x42 + 60 x6 * x43 + 50 x6 * x45 + 88 x6 * x46 - 74 x6 * x48
   + 24 x6 * x49 - 40 x6 * x51 - 48 x6 * x54 + 38 x6 * x59 + 6 x6 * x60
   + 60 x6 * x61 + 4 x6 * x62 - 8 x6 * x65 - 30 x6 * x66 + 34 x6 * x67
   + 48 x6 * x68 + 18 x6 * x72 - 90 x6 * x77 + 4 x6 * x79 + 2 x6 * x82
   - 38 x6 * x83 + 94 x6 * x86 - 60 x6 * x88 - 78 x6 * x89 - 48 x6 * x90
   - 78 x6 * x91 - 92 x6 * x92 - 36 x6 * x93 - 56 x6 * x94 + 58 x6 * x97
   - 62 x6 * x98 - 2 x7 ^2 - 38 x7 * x10 + 64 x7 * x12 - 20 x7 * x14
   + 34 x7 * x16 + 58 x7 * x18 + 24 x7 * x21 - 80 x7 * x22 - 98 x7 * x24
   + 48 x7 * x25 + 80 x7 * x26 - 4 x7 * x27 + 4 x7 * x29 + 32 x7 * x31
   - 50 x7 * x32 + 58 x7 * x35 - 24 x7 * x37 + 56 x7 * x38 + 70 x7 * x39
   + 10 x7 * x40 + 80 x7 * x41 + 78 x7 * x43 - 34 x7 * x45 + 8 x7 * x46
   - 76 x7 * x47 - 48 x7 * x48 + 14 x7 * x49 + 56 x7 * x51 - 48 x7 * x52
   - 42 x7 * x53 + 18 x7 * x58 + 10 x7 * x61 - 92 x7 * x62 - 40 x7 * x63
   + 58 x7 * x65 + 4 x7 * x68 - 80 x7 * x73 - 86 x7 * x80 + 76 x7 * x81
   - 78 x7 * x87 + 6 x7 * x92 + 44 x7 * x94 + 20 x7 * x95 - 20 x8 * x10
   - 46 x8 * x11 + 48 x8 * x12 - 18 x8 * x13 - 72 x8 * x15 - 36 x8 * x16
   - 84 x8 * x17 + 64 x8 * x21 - 6 x8 * x22 - 62 x8 * x25 + 58 x8 * x26
   + 34 x8 * x27 - 14 x8 * x29 + 84 x8 * x30 - 8 x8 * x31 + 70 x8 * x34
   - 72 x8 * x38 + 44 x8 * x40 + 2 x8 * x41 + 50 x8 * x43 + 18 x8 * x45
   - 14 x8 * x46 - 90 x8 * x47 - 82 x8 * x48 - 38 x8 * x49 - 6 x8 * x51
   + 6 x8 * x52 + 26 x8 * x53 - 14 x8 * x54 - 76 x8 * x57 - 30 x8 * x58
   + 96 x8 * x59 - 2 x8 * x60 + 40 x8 * x62 - 46 x8 * x64 - 52 x8 * x65
   + 76 x8 * x71 + 4 x8 * x74 - 20 x8 * x76 + 78 x8 * x79 - 24 x8 * x80
   + 18 x8 * x83 + 24 x8 * x85 + 28 x8 * x87 + 10 x8 * x89 - 70 x8 * x92
   + 92 x8 * x96 - 50 x8 * x98 + 18 x8 * x99 - 44 x9 * x10 + 76 x9 * x12
   - 78 x9 * x18 - 92 x9 * x19 - 84 x9 * x20 - 8 x9 * x22 - 44 x9 * x24
   - 74 x9 * x28 - 64 x9 * x29 - 30 x9 * x31 - 78 x9 * x32 - 62 x9 * x35
   - 58 x9 * x42 + 66 x9 * x46 - 20 x9 * x47 + 42 x9 * x48 + 70 x9 * x49
   - 82 x9 * x53 + 56 x9 * x55 - 88 x9 * x56 - 74 x9 * x61 + 74 x9 * x62
   - 96 x9 * x64 - 10 x9 * x67 + 52 x9 * x71 + 64 x9 * x73 + 16 x9 * x74
   + 74 x9 * x79 - 16 x9 * x80 - 10 x9 * x82 - 94 x9 * x85 - 88 x9 * x89
   - 54 x9 * x94 + 54 x9 * x95 + 62 x9 * x97 + 86 x9 * x98 + 96 x9 * x99
   - 37 x10 ^2 + 48 x10 * x11 + 50 x10 * x12 - 6 x10 * x18 + 38 x10 * x21
   + 70 x10 * x23 - 92 x10 * x26 + 66 x10 * x27 + 18 x10 * x28
   - 60 x10 * x30 + 16 x10 * x32 - 68 x10 * x35 + 10 x10 * x36
   + 16 x10 * x37 + 76 x10 * x39 - 98 x10 * x43 + 68 x10 * x44
   + 94 x10 * x46 - 90 x10 * x51 + 16 x10 * x52 - 26 x10 * x59
   + 58 x10 * x60 - 74 x10 * x61 - 10 x10 * x62 + 72 x10 * x63
   - 64 x10 * x64 - 80 x10 * x65 + 96 x10 * x66 + 92 x10 * x67
   - 88 x10 * x68 - 18 x10 * x72 + 68 x10 * x76 + 20 x10 * x80
   + 32 x10 * x84 + 66 x10 * x85 - 42 x10 * x87 + 40 x10 * x89
   + 58 x10 * x90 - 8 x10 * x92 - 98 x10 * x93 + 88 x10 * x97
   - 20 x10 * x98 + 4 x11 * x12 - 50 x11 * x13 + 46 x11 * x14
   - 90 x11 * x16 + 60 x11 * x17 - 10 x11 * x21 + 46 x11 * x24
   + 74 x11 * x26 + 82 x11 * x27 + 96 x11 * x33 + 14 x11 * x35
   - 10 x11 * x37 - 40 x11 * x38 - 90 x11 * x39 - 30 x11 * x41
   - 86 x11 * x44 - 40 x11 * x46 + 22 x11 * x48 + 22 x11 * x53
   - 78 x11 * x54 + 24 x11 * x62 - 10 x11 * x63 + 52 x11 * x64
   - 32 x11 * x65 - 80 x11 * x67 - 34 x11 * x68 + 98 x11 * x69
   - 18 x11 * x71 - 60 x11 * x73 + 28 x11 * x75 - 16 x11 * x77
   + 64 x11 * x78 + 90 x11 * x79 - 70 x11 * x80 + 8 x11 * x81
   + 44 x11 * x84 + 22 x11 * x86 + 24 x11 * x87 + 96 x11 * x91
   + 96 x11 * x92 - 28 x11 * x93 - 42 x11 * x98 - 56 x11 * x99 - 37 x12 ^2
   - 82 x12 * x20 - 78 x12 * x21 + 10 x12 * x22 - 8 x12 * x23
   + 70 x12 * x26 - 16 x12 * x27 + 52 x12 * x28 - 64 x12 * x31
   + 22 x12 * x37 + 28 x12 * x39 - 36 x12 * x40 - 46 x12 * x42
   + 88 x12 * x44 + 42 x12 * x45 + 42 x12 * x46 - 58 x12 * x47
   + 70 x12 * x48 - 60 x12 * x51 - 94 x12 * x52 - 74 x12 * x54
   - 24 x12 * x55 - 34 x12 * x56 - 82 x12 * x57 + 68 x12 * x58
   - 30 x12 * x62 + 76 x12 * x63 - 42 x12 * x64 + 80 x12 * x66
   - 12 x12 * x68 - 32 x12 * x69 - 96 x12 * x75 - 70 x12 * x76
   - 4 x12 * x79 + 88 x12 * x82 - 54 x12 * x85 + 92 x12 * x86
   - 38 x12 * x87 - 82 x12 * x89 + 10 x12 * x92 + 8 x12 * x93
   - 12 x12 * x94 - 68 x12 * x95 - 8 x12 * x96 - 42 x12 * x99
   - 26 x13 * x17 - 14 x13 * x23 - 10 x13 * x25 - 80 x13 * x26
   + 46 x13 * x29 - 80 x13 * x30 - 24 x13 * x31 - 52 x13 * x32
   - 66 x13 * x33 + 18 x13 * x42 + 28 x13 * x43 + 46 x13 * x44
   + 50 x13 * x45 + 42 x13 * x46 + 60 x13 * x50 - 42 x13 * x51
   - 54 x13 * x53 + 60 x13 * x55 + 88 x13 * x60 + 44 x13 * x61
   - 80 x13 * x62 - 46 x13 * x63 - 2 x13 * x66 - 30 x13 * x70 + 4 x13 * x71
   - 54 x13 * x73 - 24 x13 * x79 - 10 x13 * x82 + 14 x13 * x83
   + 90 x13 * x84 - 50 x13 * x86 - 76 x13 * x88 + 72 x13 * x89
   - 82 x13 * x94 - 12 x13 * x96 + 22 x13 * x97 + 80 x13 * x99 + 29 x14 ^2
   - 12 x14 * x15 + 50 x14 * x19 + 82 x14 * x24 + 74 x14 * x29
   - 4 x14 * x31 - 40 x14 * x32 - 4 x14 * x34 - 62 x14 * x36 + 92 x14 * x38
   - 38 x14 * x41 - 18 x14 * x43 + 96 x14 * x45 - 94 x14 * x46
   - 10 x14 * x47 - 10 x14 * x48 + 72 x14 * x49 + 56 x14 * x51
   + 54 x14 * x54 - 88 x14 * x56 + 8 x14 * x59 - 10 x14 * x60 - 6 x14 * x65
   - 80 x14 * x66 - 48 x14 * x72 - 40 x14 * x73 - 18 x14 * x74
   + 96 x14 * x75 - 72 x14 * x76 + 58 x14 * x77 - 56 x14 * x78
   - 30 x14 * x79 - 80 x14 * x80 - 94 x14 * x82 - 84 x14 * x86
   - 6 x14 * x87 - 52 x14 * x90 + 24 x14 * x91 - 30 x14 * x94 - 2 x14 * x96
   - 52 x15 * x16 - 14 x15 * x18 - 6 x15 * x21 - 82 x15 * x23
   - 78 x15 * x26 - 32 x15 * x28 + 46 x15 * x32 - 28 x15 * x36
   + 22 x15 * x39 + 28 x15 * x43 + 56 x15 * x45 + 12 x15 * x46
   + 72 x15 * x47 - 34 x15 * x48 + 68 x15 * x52 - 16 x15 * x54
   + 68 x15 * x55 - 32 x15 * x56 + 62 x15 * x58 - 86 x15 * x63
   + 40 x15 * x64 - 32 x15 * x65 - 2 x15 * x67 + 78 x15 * x69
   - 24 x15 * x71 + 18 x15 * x72 + 86 x15 * x73 - 42 x15 * x75
   + 16 x15 * x77 + 12 x15 * x78 + 46 x15 * x79 + 94 x15 * x85
   + 94 x15 * x88 - 94 x15 * x89 + 30 x15 * x91 - 44 x15 * x93
   - 58 x15 * x96 + 74 x15 * x97 - 29 x16 ^2 - 18 x16 * x24 - 92 x16 * x26
   + 26 x16 * x27 + 16 x16 * x29 + 86 x16 * x32 + 8 x16 * x34
   - 96 x16 * x37 - 24 x16 * x38 + 46 x16 * x39 - 32 x16 * x40
   + 72 x16 * x42 + 42 x16 * x44 + 10 x16 * x46 + 78 x16 * x47
   + 2 x16 * x48 - 18 x16 * x49 + 42 x16 * x53 + 52 x16 * x55
   + 56 x16 * x57 - 82 x16 * x58 + 22 x16 * x59 - 50 x16 * x60
   + 26 x16 * x61 - 6 x16 * x64 + 6 x16 * x65 + 52 x16 * x66 + 64 x16 * x68
   + 60 x16 * x69 + 54 x16 * x70 - 46 x16 * x71 + 52 x16 * x72
   + 28 x16 * x76 - 70 x16 * x79 + 42 x16 * x85 + 2 x16 * x86
   - 26 x16 * x89 + 88 x16 * x96 - 22 x17 * x18 - 24 x17 * x19
   + 22 x17 * x21 - 28 x17 * x22 - 80 x17 * x24 + 70 x17 * x25
   - 72 x17 * x28 - 4 x17 * x29 + 6 x17 * x31 - 40 x17 * x41 - 30 x17 * x42
   + 20 x17 * x44 + 26 x17 * x45 - 80 x17 * x48 - 28 x17 * x50
   - 16 x17 * x53 - 62 x17 * x54 - 72 x17 * x57 + 44 x17 * x61
   + 72 x17 * x62 + 60 x17 * x71 - 36 x17 * x73 + 58 x17 * x77
   + 76 x17 * x78 - 24 x17 * x79 + 78 x17 * x80 - 86 x17 * x89
   + 50 x17 * x95 + 84 x17 * x98 + 8 x18 * x20 - 10 x18 * x23
   + 98 x18 * x25 - 84 x18 * x26 - 6 x18 * x27 + 50 x18 * x29
   + 62 x18 * x37 + 62 x18 * x38 - 72 x18 * x39 + 20 x18 * x41
   - 22 x18 * x43 + 32 x18 * x44 + 62 x18 * x46 - 30 x18 * x49
   + 52 x18 * x51 - 54 x18 * x52 + 90 x18 * x56 + 14 x18 * x58
   - 86 x18 * x60 - 4 x18 * x61 - 62 x18 * x62 + 76 x18 * x63
   + 26 x18 * x66 - 84 x18 * x67 - 40 x18 * x68 - 34 x18 * x69
   - 68 x18 * x70 + 68 x18 * x72 + 32 x18 * x74 - 20 x18 * x76
   + 46 x18 * x77 - 42 x18 * x78 - 70 x18 * x79 - 60 x18 * x80
   - 84 x18 * x81 - 30 x18 * x95 - 42 x18 * x96 + 16 x18 * x97
   - 38 x18 * x98 + 74 x18 * x99 - 48 x19 ^2 - 22 x19 * x20 + 16 x19 * x21
   - 12 x19 * x23 + 92 x19 * x26 + 48 x19 * x28 + 48 x19 * x30
   + 86 x19 * x33 - 22 x19 * x35 - 82 x19 * x37 + 98 x19 * x39
   + 96 x19 * x41 - 4 x19 * x42 - 26 x19 * x46 + 24 x19 * x50 + 4 x19 * x53
   + 40 x19 * x59 - 44 x19 * x63 - 44 x19 * x65 - 24 x19 * x75
   - 74 x19 * x76 - 46 x19 * x78 - 88 x19 * x79 - 32 x19 * x80
   + 50 x19 * x83 - 42 x19 * x84 - 34 x19 * x87 - 98 x19 * x89
   - 60 x19 * x90 - 8 x19 * x91 + 48 x19 * x94 - 56 x19 * x96
   + 28 x19 * x97 + 54 x19 * x98 + 6 x20 * x22 + 24 x20 * x23
   + 28 x20 * x24 + 38 x20 * x25 - 76 x20 * x27 - 82 x20 * x29
   - 12 x20 * x30 - 30 x20 * x32 - 20 x20 * x33 - 32 x20 * x35
   - 32 x20 * x36 + 24 x20 * x39 - 4 x20 * x40 - 42 x20 * x42
   - 58 x20 * x43 - 58 x20 * x44 + 88 x20 * x45 + 46 x20 * x47
   - 66 x20 * x49 - 2 x20 * x55 - 10 x20 * x57 + 32 x20 * x58 - 4 x20 * x59
   - 16 x20 * x62 + 28 x20 * x64 - 4 x20 * x67 - 8 x20 * x69 - 82 x20 * x73
   + 90 x20 * x74 - 84 x20 * x78 - 4 x20 * x79 - 94 x20 * x87
   - 96 x20 * x89 - 12 x20 * x94 - 28 x21 ^2 - 88 x21 * x24 - 74 x21 * x26
   + 40 x21 * x29 - 10 x21 * x32 - 32 x21 * x33 - 8 x21 * x35 - 2 x21 * x39
   + 52 x21 * x40 + 88 x21 * x42 + 90 x21 * x44 - 12 x21 * x49
   - 50 x21 * x50 + 90 x21 * x52 - 42 x21 * x53 + 4 x21 * x55
   - 78 x21 * x56 + 38 x21 * x58 + 8 x21 * x60 + 10 x21 * x61
   + 28 x21 * x62 - 90 x21 * x66 + 16 x21 * x71 - 94 x21 * x73
   - 72 x21 * x77 + 10 x21 * x80 + 86 x21 * x85 - 62 x21 * x87
   + 4 x21 * x90 - 22 x21 * x91 - 36 x21 * x92 - 22 x21 * x93
   + 22 x21 * x94 - 24 x21 * x99 - 12 x22 * x24 - 24 x22 * x25
   + 90 x22 * x26 + 88 x22 * x27 - 42 x22 * x28 - 96 x22 * x29
   + 74 x22 * x30 - 82 x22 * x31 - 4 x22 * x32 - 6 x22 * x33 + 94 x22 * x34
   + 90 x22 * x36 + 84 x22 * x37 + 48 x22 * x39 + 62 x22 * x44
   + 82 x22 * x46 + 86 x22 * x47 - 8 x22 * x50 + 74 x22 * x57
   + 92 x22 * x60 - 8 x22 * x62 + 40 x22 * x67 - 84 x22 * x69
   - 70 x22 * x70 - 12 x22 * x72 + 84 x22 * x73 + 78 x22 * x75
   - 92 x22 * x76 + 56 x22 * x79 + 90 x22 * x81 + 40 x22 * x84
   - 14 x22 * x85 + 56 x22 * x86 - 28 x22 * x90 - 38 x22 * x91
   - 62 x22 * x92 + 10 x22 * x95 - 4 x22 * x96 - 80 x22 * x97 + 25 x23 ^2
   + 8 x23 * x24 + 88 x23 * x25 + 82 x23 * x28 + 22 x23 * x30
   + 28 x23 * x32 + 60 x23 * x33 + 78 x23 * x34 + 98 x23 * x35
   - 38 x23 * x36 - 6 x23 * x37 - 38 x23 * x40 + 54 x23 * x42
   + 36 x23 * x43 + 12 x23 * x52 - 84 x23 * x53 + 68 x23 * x54
   + 64 x23 * x62 + 16 x23 * x63 + 24 x23 * x64 - 30 x23 * x65
   + 22 x23 * x66 + 34 x23 * x67 - 66 x23 * x69 - 60 x23 * x70
   + 26 x23 * x72 - 30 x23 * x75 + 46 x23 * x76 + 34 x23 * x79
   - 46 x23 * x83 + 14 x23 * x91 - 92 x23 * x92 + 70 x23 * x93
   - 86 x23 * x95 + 49 x24 ^2 - 66 x24 * x25 + 34 x24 * x26 + 60 x24 * x31
   + 68 x24 * x32 + 38 x24 * x34 + 76 x24 * x35 - 72 x24 * x39
   + 98 x24 * x40 - 70 x24 * x41 + 50 x24 * x43 + 60 x24 * x45
   - 78 x24 * x46 - 96 x24 * x47 + 88 x24 * x49 + 6 x24 * x50
   + 20 x24 * x51 - 36 x24 * x52 - 20 x24 * x53 - 56 x24 * x55
   - 38 x24 * x56 + 92 x24 * x60 - 64 x24 * x73 + 36 x24 * x75
   - 92 x24 * x76 - 78 x24 * x78 + 14 x24 * x84 + 70 x24 * x86
   + 20 x24 * x88 - 50 x24 * x91 - 86 x24 * x92 - 72 x24 * x94
   + 50 x24 * x95 + 44 x24 * x96 + 80 x24 * x98 - 39 x25 ^2 + 88 x25 * x26
   - 94 x25 * x28 - 96 x25 * x30 + 30 x25 * x32 + 46 x25 * x36
   + 88 x25 * x39 - 24 x25 * x41 - 24 x25 * x42 + 52 x25 * x43
   - 28 x25 * x45 - 48 x25 * x46 + 78 x25 * x47 + 90 x25 * x48
   + 36 x25 * x49 + 56 x25 * x50 - 54 x25 * x51 + 58 x25 * x58
   + 12 x25 * x60 + 34 x25 * x62 + 96 x25 * x64 - 24 x25 * x65
   + 88 x25 * x70 - 86 x25 * x72 + 66 x25 * x73 + 64 x25 * x75
   + 80 x25 * x76 + 14 x25 * x77 + 78 x25 * x83 + 78 x25 * x85
   + 64 x25 * x86 + 58 x25 * x89 - 34 x25 * x94 + 32 x25 * x96
   + 10 x26 * x28 - 38 x26 * x31 + 70 x26 * x39 - 24 x26 * x40
   + 80 x26 * x41 + 62 x26 * x42 - 74 x26 * x43 - 86 x26 * x45
   - 38 x26 * x48 + 92 x26 * x49 + 32 x26 * x52 + 36 x26 * x54
   - 48 x26 * x55 - 80 x26 * x57 + 54 x26 * x58 - 92 x26 * x59
   + 92 x26 * x60 + 56 x26 * x65 - 62 x26 * x68 - 72 x26 * x71
   + 98 x26 * x72 - 82 x26 * x75 - 48 x26 * x77 - 98 x26 * x85
   - 74 x26 * x89 - 46 x26 * x90 - 26 x26 * x94 + 42 x26 * x95
   - 96 x26 * x96 + 98 x26 * x97 + 64 x26 * x99 + 33 x27 ^2 + 74 x27 * x28
   + 38 x27 * x31 + 64 x27 * x32 - 14 x27 * x33 + 50 x27 * x34
   + 64 x27 * x35 - 22 x27 * x38 - 58 x27 * x42 + 38 x27 * x43
   + 90 x27 * x44 - 28 x27 * x46 + 34 x27 * x47 + 86 x27 * x48
   - 38 x27 * x52 + 68 x27 * x55 + 62 x27 * x56 - 74 x27 * x57
   + 46 x27 * x58 + 44 x27 * x60 + 50 x27 * x62 - 40 x27 * x63
   - 96 x27 * x64 - 62 x27 * x67 - 30 x27 * x68 + 86 x27 * x71
   - 80 x27 * x74 + 28 x27 * x75 - 32 x27 * x76 - 30 x27 * x81
   - 42 x27 * x84 + 66 x27 * x88 - 26 x27 * x90 - 54 x27 * x92
   + 92 x27 * x93 - 70 x27 * x94 - 16 x27 * x99 - 43 x28 ^2 - 32 x28 * x32
   + 88 x28 * x35 + 2 x28 * x36 - 2 x28 * x39 - 96 x28 * x44 - 88 x28 * x45
   + 26 x28 * x46 - 44 x28 * x47 - 30 x28 * x48 - 2 x28 * x49
   - 76 x28 * x50 - 70 x28 * x54 - 4 x28 * x55 - 60 x28 * x57
   + 78 x28 * x60 + 88 x28 * x61 + 32 x28 * x62 - 44 x28 * x65
   - 96 x28 * x70 - 58 x28 * x71 + 22 x28 * x72 - 76 x28 * x73
   - 62 x28 * x74 - 90 x28 * x75 - 46 x28 * x78 - 42 x28 * x79
   + 44 x28 * x80 + 14 x28 * x81 - 82 x28 * x85 - 16 x28 * x86
   - 20 x28 * x87 + 74 x28 * x91 - 48 x28 * x92 - 66 x28 * x93
   - 58 x28 * x95 - 72 x28 * x96 + 66 x28 * x97 - 26 x29 ^2 + 62 x29 * x30
   + 4 x29 * x33 - 22 x29 * x35 + 64 x29 * x36 - 68 x29 * x37
   + 64 x29 * x39 + 84 x29 * x40 - 10 x29 * x41 + 68 x29 * x42
   + 28 x29 * x48 + 58 x29 * x49 + 62 x29 * x53 - 28 x29 * x54
   - 86 x29 * x58 - 74 x29 * x60 + 30 x29 * x61 + 54 x29 * x62
   - 88 x29 * x63 - 46 x29 * x64 + 2 x29 * x65 - 86 x29 * x71
   - 92 x29 * x72 - 16 x29 * x73 - 64 x29 * x76 - 24 x29 * x78
   - 98 x29 * x79 - 16 x29 * x81 - 38 x29 * x83 + 50 x29 * x85
   + 80 x29 * x87 + 84 x29 * x89 - 68 x29 * x91 + 12 x29 * x97 + 24 x30 ^2
   + 60 x30 * x32 - 48 x30 * x33 - 32 x30 * x34 + 36 x30 * x38
   - 4 x30 * x40 + 50 x30 * x41 - 18 x30 * x43 - 8 x30 * x45 - 32 x30 * x52
   + 58 x30 * x56 - 96 x30 * x57 + 18 x30 * x59 + 80 x30 * x61
   + 54 x30 * x63 - 78 x30 * x66 + 64 x30 * x67 - 78 x30 * x68
   - 42 x30 * x73 + 10 x30 * x75 - 80 x30 * x76 + 44 x30 * x78
   + 54 x30 * x79 + 56 x30 * x82 - 66 x30 * x85 - 96 x30 * x86
   + 36 x30 * x89 + 52 x30 * x90 - 4 x30 * x93 + 98 x30 * x94
   - 36 x30 * x95 - 60 x30 * x96 - 44 x30 * x97 - 14 x30 * x98
   + 10 x30 * x99 + 80 x31 * x33 + 48 x31 * x35 - 54 x31 * x37
   - 52 x31 * x38 - 56 x31 * x42 - 4 x31 * x43 + 18 x31 * x44
   + 28 x31 * x45 + 54 x31 * x46 + 52 x31 * x48 + 96 x31 * x50
   + 60 x31 * x54 + 30 x31 * x55 - 16 x31 * x60 + 76 x31 * x62
   + 68 x31 * x64 + 4 x31 * x65 + 82 x31 * x67 - 30 x31 * x69
   + 42 x31 * x71 + 34 x31 * x75 + 70 x31 * x80 - 44 x31 * x81
   + 58 x31 * x83 + 42 x31 * x84 + 78 x31 * x86 - 94 x31 * x88
   + 26 x31 * x91 - 22 x31 * x92 - 44 x31 * x95 - 78 x31 * x98
   - 52 x31 * x99 + 49 x32 ^2 + 76 x32 * x33 + 70 x32 * x37 + 98 x32 * x38
   + 24 x32 * x39 + 4 x32 * x43 + 92 x32 * x45 + 78 x32 * x48
   - 28 x32 * x50 + 56 x32 * x51 - 28 x32 * x52 - 30 x32 * x53
   - 58 x32 * x54 + 64 x32 * x55 + 30 x32 * x57 + 28 x32 * x58
   + 80 x32 * x60 + 96 x32 * x61 + 14 x32 * x64 - 46 x32 * x65
   + 76 x32 * x67 + 94 x32 * x68 + 16 x32 * x69 - 60 x32 * x71
   - 28 x32 * x72 + 12 x32 * x73 + 12 x32 * x74 - 84 x32 * x75
   - 76 x32 * x76 - 88 x32 * x78 + 34 x32 * x80 - 42 x32 * x81
   - 16 x32 * x83 + 94 x32 * x84 - 50 x32 * x85 + 40 x32 * x87
   - 28 x32 * x88 + 66 x32 * x93 + 98 x32 * x95 - 70 x32 * x99
   + 66 x33 * x34 - 62 x33 * x36 - 6 x33 * x37 + 44 x33 * x39
   + 64 x33 * x41 - 28 x33 * x42 - 18 x33 * x47 + 90 x33 * x48
   + 52 x33 * x53 + 98 x33 * x56 + 76 x33 * x61 + 44 x33 * x62
   + 26 x33 * x66 + 40 x33 * x68 - 28 x33 * x69 - 84 x33 * x70
   + 32 x33 * x73 - 64 x33 * x76 - 76 x33 * x77 - 52 x33 * x78
   - 38 x33 * x80 + 72 x33 * x82 + 78 x33 * x84 - 64 x33 * x85
   + 12 x33 * x86 + 54 x33 * x87 + 6 x33 * x89 + 58 x33 * x91
   + 44 x33 * x93 - 96 x33 * x94 + 74 x33 * x95 + 38 x33 * x96
   + 52 x34 * x36 - 90 x34 * x37 - 2 x34 * x38 - 22 x34 * x40
   - 18 x34 * x41 - 58 x34 * x42 - 90 x34 * x45 - 68 x34 * x47
   - 34 x34 * x49 - 98 x34 * x50 + 78 x34 * x52 + 2 x34 * x56
   - 22 x34 * x58 - 94 x34 * x59 + 88 x34 * x60 + 56 x34 * x64
   - 4 x34 * x65 + 82 x34 * x67 - 66 x34 * x68 - 44 x34 * x69
   + 20 x34 * x74 + 6 x34 * x76 - 66 x34 * x78 - 28 x34 * x80
   - 28 x34 * x81 - 14 x34 * x82 + 48 x34 * x84 + 58 x34 * x85
   + 62 x34 * x87 + 64 x34 * x89 - 42 x34 * x91 - 62 x34 * x93
   + 70 x34 * x95 + 96 x34 * x96 + 2 x34 * x97 + 66 x34 * x98 + 15 x35 ^2
   + 62 x35 * x40 + 8 x35 * x41 + 62 x35 * x42 + 44 x35 * x43
   + 64 x35 * x45 + 48 x35 * x47 - 44 x35 * x49 + 88 x35 * x53
   - 70 x35 * x54 - 94 x35 * x55 - 30 x35 * x56 - 72 x35 * x58
   + 36 x35 * x59 + 28 x35 * x60 + 68 x35 * x63 + 32 x35 * x67
   + 98 x35 * x68 + 42 x35 * x69 - 36 x35 * x70 - 56 x35 * x78
   + 84 x35 * x79 - 28 x35 * x80 - 46 x35 * x82 - 48 x35 * x83
   - 90 x35 * x84 + 86 x35 * x87 - 20 x35 * x89 + 24 x35 * x90
   + 84 x35 * x91 + 12 x35 * x93 - 30 x35 * x94 + 80 x35 * x95
   + 72 x35 * x98 + 26 x35 * x99 + 26 x36 * x37 - 50 x36 * x38
   + 74 x36 * x39 + 32 x36 * x43 - 34 x36 * x44 + 62 x36 * x45
   + 72 x36 * x47 + 92 x36 * x48 - 44 x36 * x49 - 72 x36 * x50
   - 76 x36 * x52 - 74 x36 * x54 + 14 x36 * x55 + 34 x36 * x57
   - 12 x36 * x60 - 18 x36 * x61 + 44 x36 * x63 + 60 x36 * x65
   + 98 x36 * x67 - 52 x36 * x75 + 92 x36 * x77 + 70 x36 * x79
   - 10 x36 * x80 + 98 x36 * x81 - 24 x36 * x90 + 80 x36 * x91
   - 32 x36 * x92 - 40 x36 * x96 + 20 x36 * x97 - 66 x36 * x98 - 46 x37 ^2
   - 76 x37 * x40 + 42 x37 * x41 - 8 x37 * x43 - 40 x37 * x44
   - 20 x37 * x45 + 64 x37 * x46 - 14 x37 * x48 + 66 x37 * x49
   - 72 x37 * x51 + 76 x37 * x54 + 4 x37 * x55 - 12 x37 * x56
   + 22 x37 * x59 - 88 x37 * x60 + 54 x37 * x61 - 92 x37 * x63
   - 98 x37 * x65 - 14 x37 * x67 + 88 x37 * x68 + 52 x37 * x70
   + 38 x37 * x72 + 20 x37 * x73 - 22 x37 * x75 + 98 x37 * x78
   - 36 x37 * x79 - 16 x37 * x82 + 18 x37 * x84 - 4 x37 * x86
   - 46 x37 * x94 + 32 x37 * x95 - 38 x37 * x97 + 44 x37 * x98 + 43 x38 ^2
   + 18 x38 * x41 + 84 x38 * x42 + 36 x38 * x43 + 72 x38 * x45
   + 58 x38 * x46 - 42 x38 * x48 + 86 x38 * x49 + 24 x38 * x53
   - 34 x38 * x61 + 6 x38 * x62 + 4 x38 * x65 + 16 x38 * x67 + 4 x38 * x68
   - 58 x38 * x69 - 30 x38 * x73 + 40 x38 * x76 - 6 x38 * x78
   + 52 x38 * x79 - 56 x38 * x81 + 64 x38 * x82 + 78 x38 * x84
   + 8 x38 * x86 - 14 x38 * x88 + 92 x38 * x89 + 72 x38 * x91 + 4 x38 * x92
   + 44 x38 * x93 - 6 x38 * x94 - 96 x38 * x97 - 62 x39 * x40
   + 34 x39 * x44 + 40 x39 * x48 + 22 x39 * x50 + 24 x39 * x51
   - 34 x39 * x53 - 58 x39 * x54 + 42 x39 * x56 + 8 x39 * x57
   - 32 x39 * x58 - 54 x39 * x60 - 94 x39 * x61 + 38 x39 * x62
   - 24 x39 * x66 + 66 x39 * x73 - 20 x39 * x74 - 40 x39 * x75
   - 82 x39 * x82 + 30 x39 * x84 - 44 x39 * x85 - 34 x39 * x87
   - 56 x39 * x88 + 84 x39 * x89 - 46 x39 * x92 - 42 x39 * x94
   + 34 x39 * x96 + 12 x40 ^2 + 86 x40 * x41 + 24 x40 * x42 + 84 x40 * x48
   + 68 x40 * x49 + 52 x40 * x55 - 82 x40 * x57 - 68 x40 * x58
   - 28 x40 * x60 - 28 x40 * x61 + 96 x40 * x64 + 24 x40 * x66
   + 2 x40 * x69 - 90 x40 * x70 + 62 x40 * x71 + 62 x40 * x73
   + 88 x40 * x75 + 90 x40 * x76 + 86 x40 * x77 + 86 x40 * x83
   + 94 x40 * x84 - 84 x40 * x85 - 8 x40 * x89 + 56 x40 * x90
   + 18 x40 * x92 - 18 x40 * x94 - 18 x40 * x97 - 2 x40 * x99
   + 92 x41 * x43 - 62 x41 * x45 - 48 x41 * x46 - 30 x41 * x47
   + 52 x41 * x48 + 52 x41 * x49 + 14 x41 * x52 - 80 x41 * x55
   - 26 x41 * x56 - 46 x41 * x58 - 36 x41 * x59 - 74 x41 * x60
   + 46 x41 * x62 - 18 x41 * x64 + 52 x41 * x65 - 8 x41 * x66
   + 74 x41 * x67 + 16 x41 * x69 - 86 x41 * x70 + 46 x41 * x75
   - 20 x41 * x77 - 84 x41 * x78 + 76 x41 * x81 + 82 x41 * x82
   - 30 x41 * x84 - 12 x41 * x85 - 44 x41 * x86 + 46 x41 * x88
   - 20 x41 * x89 + 44 x41 * x90 + 80 x41 * x95 - 20 x41 * x99
   + 50 x42 * x43 + 24 x42 * x53 - 26 x42 * x56 - 62 x42 * x59
   - 66 x42 * x66 - 80 x42 * x69 + 44 x42 * x70 + 40 x42 * x72
   + 96 x42 * x75 - 62 x42 * x76 - 48 x42 * x77 + 60 x42 * x78
   + 30 x42 * x79 + 4 x42 * x80 - 32 x42 * x82 - 84 x42 * x84
   + 12 x42 * x85 + 66 x42 * x86 + 82 x42 * x89 + 34 x42 * x90
   - 6 x42 * x92 + 80 x42 * x93 + 62 x42 * x96 - 52 x42 * x97
   - 64 x42 * x98 - 44 x43 * x46 - 44 x43 * x47 - 48 x43 * x48
   - 80 x43 * x50 - 16 x43 * x51 + 92 x43 * x52 + 24 x43 * x53
   + 76 x43 * x56 - 10 x43 * x57 + 16 x43 * x59 - 64 x43 * x60
   - 82 x43 * x62 + 66 x43 * x63 + 8 x43 * x65 + 52 x43 * x66
   + 68 x43 * x68 + 54 x43 * x70 - 44 x43 * x74 + 12 x43 * x75
   - 26 x43 * x76 - 2 x43 * x78 - 86 x43 * x79 - 72 x43 * x80
   - 20 x43 * x82 - 96 x43 * x83 + 36 x43 * x85 - 86 x43 * x87
   + 4 x43 * x89 + 88 x43 * x91 + 30 x43 * x94 - 6 x43 * x95 + 88 x43 * x96
   - 46 x43 * x97 + 58 x43 * x98 + 2 x43 * x99 - 44 x44 ^2 + 92 x44 * x45
   - 24 x44 * x46 - 54 x44 * x47 - 90 x44 * x48 + 66 x44 * x50
   + 56 x44 * x51 - 6 x44 * x52 - 66 x44 * x53 + 36 x44 * x56
   - 24 x44 * x57 - 72 x44 * x60 + 48 x44 * x62 + 86 x44 * x63
   + 64 x44 * x64 + 56 x44 * x66 + 38 x44 * x67 + 76 x44 * x68
   + 12 x44 * x69 + 40 x44 * x70 + 94 x44 * x80 + 58 x44 * x81
   + 58 x44 * x82 - 82 x44 * x84 - 62 x44 * x85 - 40 x44 * x87
   + 86 x44 * x89 - 28 x44 * x91 - 36 x44 * x92 - 34 x44 * x93
   - 64 x44 * x99 + 35 x45 ^2 + 52 x45 * x49 - 60 x45 * x50 - 20 x45 * x52
   - 34 x45 * x53 + 52 x45 * x56 + 26 x45 * x57 - 52 x45 * x61
   + 48 x45 * x64 + 6 x45 * x68 - 50 x45 * x70 - 40 x45 * x73 - 6 x45 * x74
   + 66 x45 * x78 + 4 x45 * x79 - 48 x45 * x80 - 8 x45 * x82 - 14 x45 * x83
   - 74 x45 * x86 + 10 x45 * x87 - 20 x45 * x96 - 38 x45 * x98 + 22 x46 ^2
   - 64 x46 * x47 - 84 x46 * x49 - 62 x46 * x52 + 88 x46 * x55
   + 18 x46 * x58 + 60 x46 * x59 - 42 x46 * x61 + 68 x46 * x62
   - 98 x46 * x66 - 4 x46 * x67 - 78 x46 * x71 - 86 x46 * x73
   + 66 x46 * x74 + 88 x46 * x75 + 30 x46 * x76 + 12 x46 * x78
   - 16 x46 * x81 + 20 x46 * x82 - 82 x46 * x83 + 62 x46 * x84
   - 4 x46 * x89 - 92 x46 * x90 + 22 x46 * x96 + 20 x46 * x97 + 3 x47 ^2
   - 24 x47 * x48 + 70 x47 * x50 - 92 x47 * x51 - 40 x47 * x52
   - 30 x47 * x54 - 10 x47 * x57 + 36 x47 * x58 + 82 x47 * x62
   - 6 x47 * x63 - 96 x47 * x65 - 38 x47 * x67 - 34 x47 * x69
   + 32 x47 * x70 + 20 x47 * x72 + 96 x47 * x73 - 76 x47 * x78
   - 26 x47 * x79 + 64 x47 * x80 + 68 x47 * x81 + 86 x47 * x84
   + 76 x47 * x92 + 56 x47 * x93 - 56 x47 * x95 - 50 x47 * x99
   - 88 x48 * x50 - 76 x48 * x51 + 78 x48 * x52 - 34 x48 * x53
   - 68 x48 * x55 + 56 x48 * x58 - 42 x48 * x59 - 92 x48 * x60
   + 16 x48 * x61 - 50 x48 * x62 - 40 x48 * x64 - 96 x48 * x67
   - 44 x48 * x69 + 46 x48 * x70 - 46 x48 * x72 + 82 x48 * x74
   + 18 x48 * x79 - 44 x48 * x80 + 52 x48 * x81 - 54 x48 * x82
   + 26 x48 * x85 - 10 x48 * x86 + 60 x48 * x87 - 64 x48 * x91
   - 94 x48 * x94 - 42 x48 * x95 + 50 x48 * x99 - 76 x49 * x50
   - 86 x49 * x51 - 28 x49 * x53 + 94 x49 * x57 + 56 x49 * x60
   - 20 x49 * x62 - 28 x49 * x64 - 50 x49 * x65 - 2 x49 * x66
   + 68 x49 * x67 + 26 x49 * x71 + 16 x49 * x73 + 52 x49 * x74
   + 42 x49 * x78 - 74 x49 * x79 + 24 x49 * x80 - 30 x49 * x81
   + 2 x49 * x84 + 86 x49 * x85 + 54 x49 * x87 + 64 x49 * x90
   - 52 x49 * x91 + 44 x49 * x92 - 98 x49 * x93 - 16 x49 * x95
   - 42 x49 * x97 + 20 x49 * x99 - 24 x50 ^2 + 26 x50 * x52 - 70 x50 * x54
   - 78 x50 * x55 + 82 x50 * x56 - 32 x50 * x57 + 52 x50 * x58
   - 54 x50 * x59 - 64 x50 * x60 + 4 x50 * x64 - 14 x50 * x66
   + 84 x50 * x67 + 48 x50 * x69 - 74 x50 * x70 - 8 x50 * x71
   - 78 x50 * x72 - 90 x50 * x73 - 54 x50 * x74 - 96 x50 * x75
   - 82 x50 * x76 + 92 x50 * x78 - 78 x50 * x80 - 8 x50 * x82
   - 14 x50 * x85 - 18 x50 * x88 - 48 x50 * x93 - 46 x50 * x94
   - 36 x50 * x95 - 26 x50 * x99 - 13 x51 ^2 - 6 x51 * x53 - 46 x51 * x55
   - 10 x51 * x56 - 12 x51 * x59 + 10 x51 * x62 - 16 x51 * x67
   + 48 x51 * x68 - 8 x51 * x72 - 16 x51 * x75 + 78 x51 * x76
   + 96 x51 * x78 - 60 x51 * x80 - 26 x51 * x82 - 82 x51 * x83
   - 90 x51 * x84 + 90 x51 * x86 + 92 x51 * x87 + 18 x51 * x89
   - 60 x51 * x90 + 28 x51 * x93 + 12 x51 * x94 - 42 x51 * x95
   + 26 x51 * x97 - 15 x52 ^2 + 90 x52 * x53 + 74 x52 * x54 - 54 x52 * x56
   + 44 x52 * x57 + 76 x52 * x58 + 48 x52 * x60 + 6 x52 * x62
   - 46 x52 * x63 + 40 x52 * x64 - 98 x52 * x65 - 94 x52 * x67
   - 44 x52 * x68 + 64 x52 * x70 + 40 x52 * x71 + 38 x52 * x72
   - 76 x52 * x73 - 44 x52 * x74 + 40 x52 * x75 - 66 x52 * x76
   + 86 x52 * x77 + 70 x52 * x80 - 76 x52 * x81 + 72 x52 * x84
   - 14 x52 * x85 - 74 x52 * x87 + 46 x52 * x91 + 62 x52 * x93
   - 44 x52 * x94 - 58 x52 * x96 - 56 x52 * x98 - 32 x52 * x99 + 23 x53 ^2
   - 16 x53 * x55 - 30 x53 * x56 - 76 x53 * x57 + 28 x53 * x61
   + 94 x53 * x62 + 88 x53 * x64 + 46 x53 * x66 + 66 x53 * x68
   - 8 x53 * x69 - 94 x53 * x70 + 80 x53 * x72 + 94 x53 * x73
   - 86 x53 * x75 + 78 x53 * x76 - 68 x53 * x77 - 46 x53 * x80
   - 12 x53 * x81 + 46 x53 * x83 - 50 x53 * x84 + 30 x53 * x86
   - 46 x53 * x87 + 36 x53 * x89 + 22 x53 * x91 - 54 x53 * x92
   + 2 x53 * x93 - 20 x53 * x95 - 66 x53 * x98 + 92 x54 * x57
   - 30 x54 * x61 - 56 x54 * x62 - 50 x54 * x65 + 36 x54 * x67
   - 52 x54 * x71 - 6 x54 * x72 + 24 x54 * x77 - 54 x54 * x78
   + 26 x54 * x82 - 40 x54 * x83 - 40 x54 * x85 + 34 x54 * x87
   + 48 x54 * x88 - 10 x54 * x89 + 62 x54 * x90 - 14 x54 * x92
   - 74 x54 * x93 + 74 x54 * x96 - 64 x54 * x99 - 28 x55 * x57
   - 72 x55 * x60 + 58 x55 * x62 + 86 x55 * x66 - 90 x55 * x68
   + 46 x55 * x70 - 14 x55 * x71 + 44 x55 * x72 + 94 x55 * x73
   - 24 x55 * x76 + 86 x55 * x77 - 94 x55 * x78 + 48 x55 * x80
   + 42 x55 * x81 - 6 x55 * x82 + 36 x55 * x83 - 56 x55 * x84
   + 94 x55 * x86 + 22 x55 * x91 - 32 x55 * x96 - 22 x56 * x58
   - 98 x56 * x61 - 28 x56 * x64 + 54 x56 * x67 - 4 x56 * x68
   - 10 x56 * x69 - 60 x56 * x70 + 96 x56 * x72 - 18 x56 * x73
   + 80 x56 * x75 + 82 x56 * x76 - 54 x56 * x78 - 68 x56 * x79
   - 42 x56 * x80 + 26 x56 * x87 + 22 x56 * x88 + 56 x56 * x89
   + 36 x56 * x90 + 54 x56 * x93 + 34 x56 * x94 - 26 x56 * x97
   - 90 x56 * x98 - 36 x57 * x59 + 58 x57 * x60 + 14 x57 * x61
   - 56 x57 * x64 - 10 x57 * x65 - 20 x57 * x69 + 40 x57 * x70
   - 42 x57 * x72 + 32 x57 * x74 + 94 x57 * x75 + 56 x57 * x79
   - 94 x57 * x82 - 56 x57 * x83 + 50 x57 * x84 - 28 x57 * x88
   + 94 x57 * x90 - 78 x57 * x92 + 82 x57 * x93 + 82 x57 * x95
   - 46 x57 * x96 - 92 x57 * x97 + 29 x58 ^2 - 58 x58 * x59 + 46 x58 * x61
   - 58 x58 * x62 + 86 x58 * x64 - 4 x58 * x66 - 20 x58 * x67
   - 16 x58 * x69 - 22 x58 * x72 + 48 x58 * x75 - 22 x58 * x77
   + 34 x58 * x78 - 24 x58 * x79 - 50 x58 * x80 - 64 x58 * x81
   + 4 x58 * x88 - 46 x58 * x89 - 94 x58 * x90 + 92 x58 * x91
   + 54 x58 * x92 - 52 x58 * x93 - 4 x58 * x95 - 64 x58 * x97 - 42 x59 ^2
   - 6 x59 * x62 + 78 x59 * x63 + 38 x59 * x64 - 90 x59 * x66
   - 16 x59 * x68 - 4 x59 * x71 + 58 x59 * x72 + 88 x59 * x74
   - 38 x59 * x76 - 66 x59 * x79 + 4 x59 * x80 - 74 x59 * x83
   + 60 x59 * x84 + 72 x59 * x86 + 34 x59 * x87 + 54 x59 * x88
   + 54 x59 * x90 - 64 x59 * x92 + 6 x59 * x93 - 90 x59 * x99 - 30 x60 ^2
   + 46 x60 * x62 + 26 x60 * x67 - 80 x60 * x68 + 48 x60 * x69
   + 30 x60 * x71 - 74 x60 * x72 + 92 x60 * x73 - 74 x60 * x74
   - 14 x60 * x75 - 88 x60 * x78 + 96 x60 * x79 - 62 x60 * x80
   + 16 x60 * x81 + 18 x60 * x82 - 76 x60 * x83 + 92 x60 * x84
   + 98 x60 * x87 - 16 x60 * x88 + 98 x60 * x89 - 88 x60 * x91
   + 78 x60 * x92 + 50 x60 * x93 - 74 x60 * x94 - 28 x60 * x95
   - 60 x60 * x96 + 88 x60 * x97 + 90 x60 * x98 - 8 x60 * x99 - 5 x61 ^2
   - 4 x61 * x62 + 2 x61 * x70 - 34 x61 * x71 - 98 x61 * x72 - 86 x61 * x73
   - 76 x61 * x74 + 14 x61 * x76 - 94 x61 * x78 + 70 x61 * x83
   - 38 x61 * x85 - 34 x61 * x88 + 48 x61 * x89 - 2 x61 * x90
   + 72 x61 * x91 - 58 x61 * x94 + 86 x61 * x95 + 90 x61 * x96
   + 42 x61 * x98 - 28 x61 * x99 + 56 x62 * x63 + 94 x62 * x66
   + 48 x62 * x70 - 84 x62 * x72 + 88 x62 * x75 + 96 x62 * x77
   - 28 x62 * x78 - 64 x62 * x79 - 24 x62 * x83 + 60 x62 * x86
   + 76 x62 * x87 + 92 x62 * x89 + 44 x62 * x91 + 76 x62 * x95
   - 42 x62 * x96 + 50 x62 * x98 + 2 x62 * x99 - 21 x63 ^2 - 70 x63 * x64
   + 8 x63 * x68 + 94 x63 * x72 + 12 x63 * x73 - 98 x63 * x74 - 2 x63 * x77
   + 44 x63 * x78 + 88 x63 * x80 + 88 x63 * x81 - 8 x63 * x84
   + 82 x63 * x85 - 28 x63 * x86 + 22 x63 * x87 - 90 x63 * x88
   - 60 x63 * x89 + 34 x63 * x91 + 58 x63 * x92 - 62 x63 * x93
   + 48 x63 * x94 - 60 x63 * x95 - 62 x64 * x65 + 88 x64 * x66
   - 26 x64 * x71 - 42 x64 * x72 + 32 x64 * x73 + 20 x64 * x74
   + 76 x64 * x76 + 74 x64 * x79 - 4 x64 * x81 - 56 x64 * x85
   - 44 x64 * x88 - 68 x64 * x89 + 16 x64 * x90 - 72 x64 * x91
   - 24 x64 * x92 - 76 x64 * x93 + 46 x64 * x96 + 90 x64 * x99
   - 22 x65 * x67 + 84 x65 * x68 + 62 x65 * x75 + 52 x65 * x77
   + 56 x65 * x79 + 50 x65 * x83 + 88 x65 * x84 + 72 x65 * x85
   + 26 x65 * x86 - 98 x65 * x87 - 32 x65 * x89 - 84 x65 * x90
   + 18 x65 * x94 + 82 x65 * x95 + 38 x65 * x96 - 30 x66 * x69
   + 32 x66 * x70 - 82 x66 * x71 - 82 x66 * x75 - 94 x66 * x76
   + 62 x66 * x79 - 54 x66 * x80 + 94 x66 * x83 + 14 x66 * x88
   - 16 x66 * x92 - 90 x66 * x94 + 78 x66 * x97 + 36 x66 * x98
   - 28 x66 * x99 + 46 x67 * x68 + 64 x67 * x70 - 36 x67 * x71
   + 82 x67 * x72 - 42 x67 * x76 + 90 x67 * x78 + 94 x67 * x83
   - 44 x67 * x85 - 84 x67 * x86 + 44 x67 * x87 - 76 x67 * x88
   - 28 x67 * x89 + 10 x67 * x90 - 50 x67 * x91 - 20 x67 * x94
   + 72 x67 * x98 + 56 x67 * x99 - 60 x68 * x69 - 76 x68 * x73
   + 26 x68 * x75 - 88 x68 * x77 + 50 x68 * x78 - 84 x68 * x85
   - 50 x68 * x86 - 58 x68 * x87 + 68 x68 * x91 - 26 x68 * x94
   + 42 x68 * x96 - 40 x68 * x97 - 52 x68 * x99 - 19 x69 ^2 + 70 x69 * x75
   - 6 x69 * x76 - 76 x69 * x78 - 6 x69 * x80 + 24 x69 * x86 - 16 x69 * x88
   + 62 x69 * x90 - 2 x69 * x92 + 8 x69 * x93 - 34 x69 * x94 + 86 x69 * x95
   + 76 x69 * x97 - 26 x69 * x98 - 31 x70 ^2 - 24 x70 * x72 - 86 x70 * x73
   - 96 x70 * x74 + 36 x70 * x80 + 36 x70 * x81 + 20 x70 * x85
   + 14 x70 * x90 + 16 x70 * x94 - 78 x70 * x98 - 22 x71 * x72
   + 38 x71 * x75 + 38 x71 * x76 + 92 x71 * x77 - 92 x71 * x79
   - 44 x71 * x82 + 74 x71 * x83 - 56 x71 * x84 - 78 x71 * x89
   - 20 x71 * x90 - 64 x71 * x92 - 2 x71 * x93 + 52 x71 * x95
   + 92 x71 * x96 + 88 x71 * x99 - 49 x72 ^2 - 84 x72 * x73 + 62 x72 * x74
   + 86 x72 * x75 - 50 x72 * x77 - 24 x72 * x79 + 8 x72 * x84
   - 24 x72 * x85 - 2 x72 * x86 - 36 x72 * x88 - 6 x72 * x91 + 72 x72 * x94
   - 30 x72 * x95 + 90 x72 * x98 - 98 x72 * x99 + 13 x73 ^2 - 34 x73 * x74
   - 46 x73 * x78 - 68 x73 * x79 + 72 x73 * x81 + 58 x73 * x83
   - 48 x73 * x84 - 8 x73 * x86 - 14 x73 * x89 + 52 x73 * x92 - 4 x73 * x93
   + 44 x73 * x95 + 18 x73 * x96 - 70 x73 * x98 + 18 x73 * x99
   + 86 x74 * x75 - 44 x74 * x76 - 82 x74 * x78 + 48 x74 * x82
   + 58 x74 * x84 + 50 x74 * x86 + 98 x74 * x91 - 84 x74 * x92
   + 34 x74 * x93 + 44 x74 * x94 - 16 x74 * x96 - 64 x74 * x97
   + 96 x74 * x98 + 30 x75 ^2 + 12 x75 * x77 - 58 x75 * x85 + 6 x75 * x86
   + 68 x75 * x87 + 76 x75 * x89 + 72 x75 * x90 + 26 x75 * x91
   + 46 x75 * x93 + 94 x75 * x95 + 78 x75 * x96 + 18 x76 ^2 - 74 x76 * x77
   - 54 x76 * x80 - 96 x76 * x82 + 94 x76 * x83 + 62 x76 * x85
   - 62 x76 * x86 - 40 x76 * x87 - 72 x76 * x88 + 14 x76 * x89
   - 24 x76 * x92 - 64 x76 * x94 - 60 x76 * x95 - 98 x76 * x97
   - 12 x76 * x99 + 64 x77 * x79 + 40 x77 * x80 - 98 x77 * x82
   - 28 x77 * x83 + 28 x77 * x84 + 8 x77 * x86 + 38 x77 * x88
   - 34 x77 * x90 + 56 x77 * x94 - 92 x77 * x96 + 8 x77 * x97 + 6 x77 * x98
   + 16 x77 * x99 - 48 x78 ^2 + 32 x78 * x79 - 86 x78 * x80 - 16 x78 * x81
   + 4 x78 * x82 + 28 x78 * x83 + 10 x78 * x85 - 80 x78 * x87
   - 50 x78 * x90 + 50 x78 * x91 + 82 x78 * x92 + 90 x78 * x98
   - 96 x79 * x81 + 16 x79 * x84 + 50 x79 * x85 - 4 x79 * x86
   - 38 x79 * x88 + 58 x79 * x89 - 38 x79 * x90 + 76 x79 * x91
   - 74 x79 * x93 - 36 x79 * x95 + 28 x79 * x96 - 24 x80 * x83
   - 36 x80 * x84 - 94 x80 * x86 - 64 x80 * x88 - 36 x80 * x90
   - 14 x80 * x92 + 90 x80 * x95 + 14 x80 * x96 + 32 x80 * x98
   + 30 x81 * x83 + 48 x81 * x84 + 14 x81 * x85 - 52 x81 * x86
   - 42 x81 * x88 - 90 x81 * x89 + 42 x81 * x90 + 66 x81 * x93
   - 10 x81 * x94 - 34 x81 * x97 - 24 x82 ^2 + 4 x82 * x83 + 72 x82 * x84
   - 38 x82 * x87 - 80 x82 * x89 + 86 x82 * x95 - 26 x82 * x96
   + 90 x82 * x97 + 8 x82 * x98 - 12 x83 ^2 + 28 x83 * x84 - 66 x83 * x85
   + 66 x83 * x86 - 56 x83 * x88 - 40 x83 * x90 - 14 x83 * x92
   - 8 x83 * x93 + 96 x83 * x98 + 26 x83 * x99 - 42 x84 * x88 + 4 x84 * x89
   - 90 x84 * x91 - 36 x84 * x92 - 4 x84 * x94 - 54 x84 * x96
   + 52 x84 * x97 - 56 x84 * x99 - 12 x85 * x86 - 40 x85 * x89
   + 66 x85 * x90 - 26 x85 * x93 - 36 x85 * x94 + 62 x85 * x95
   - 92 x85 * x97 - 42 x86 ^2 - 14 x86 * x88 - 42 x86 * x90 - 82 x86 * x94
   - 16 x86 * x96 - 84 x86 * x97 - 42 x86 * x98 + 47 x87 ^2 + 38 x87 * x89
   - 52 x87 * x90 + 18 x87 * x91 + 34 x87 * x92 - 52 x87 * x96
   - 62 x87 * x97 - 42 x87 * x98 + 28 x88 ^2 - 76 x88 * x91 + 94 x88 * x95
   + 70 x88 * x96 - 74 x88 * x97 - 9 x89 ^2 + 80 x89 * x90 - 22 x89 * x92
   - 90 x89 * x93 - 2 x89 * x95 - 62 x89 * x99 + 17 x90 ^2 - 12 x90 * x91
   - 84 x90 * x93 + 76 x90 * x94 - 10 x90 * x95 - 76 x90 * x99 + 42 x91 ^2
   + 52 x91 * x92 - 16 x91 * x93 - 60 x91 * x95 + 31 x92 ^2 - 82 x92 * x93
   - 32 x92 * x95 - 46 x92 * x96 - 88 x93 * x95 - 86 x93 * x97
   - 10 x93 * x98 - 18 x93 * x99 + 4 x94 ^2 + 10 x94 * x95 + 86 x94 * x97
   + 22 x94 * x98 - 76 x95 * x99 + 32 x96 * x97 - 66 x96 * x98 + 49 x97 ^2
   + 8 x97 * x98 - 72 x97 * x99 - 35 x98 ^2 - 25 x99 ^2 ] / 2 
Subject To
Bounds
 x0 <= 1
 x1 <= 1
 x2 <= 1
 x3 <= 1
 x4 <= 1
 x5 <= 1
 x6 <= 1
 x7 <= 1
 x8 <= 1
 x9 <= 1
 x10 <= 1
 x11 <= 1
 x12 <= 1
 x13 <= 1
 x14 <= 1
 x15 <= 1
 x16 <= 1
 x17 <= 1
 x18 <= 1
 x19 <= 1
 x20 <= 1
 x21 <= 1
 x22 <= 1
 x23 <= 1
 x24 <= 1
 x25 <= 1
 x26 <= 1
 x27 <= 1
 x28 <= 1
 x29 <= 1
 x30 <= 1
 x31 <= 1
 x32 <= 1
 x33 <= 1
 x34 <= 1
 x35 <= 1
 x36 <= 1
 x37 <= 1
 x38 <= 1
 x39 <= 1
 x40 <= 1
 x41 <= 1
 x42 <= 1
 x43 <= 1
 x44 <= 1
 x45 <= 1
 x46 <= 1
 x47 <= 1
 x48 <= 1
 x49 <= 1
 x50 <= 1
 x51 <= 1
 x52 <= 1
 x53 <= 1
 x54 <= 1
 x55 <= 1
 x56 <= 1
 x57 <= 1
 x58 <= 1
 x59 <= 1
 x60 <= 1
 x61 <= 1
 x62 <= 1
 x63 <= 1
 x64 <= 1
 x65 <= 1
 x66 <= 1
 x67 <= 1
 x68 <= 1
 x69 <= 1
 x70 <= 1
 x71 <= 1
 x72 <= 1
 x73 <= 1
 x74 <= 1
 x75 <= 1
 x76 <= 1
 x77 <= 1
 x78 <= 1
 x79 <= 1
 x80 <= 1
 x81 <= 1
 x82 <= 1
 x83 <= 1
 x84 <= 1
 x85 <= 1
 x86 <= 1
 x87 <= 1
 x88 <= 1
 x89 <= 1
 x90 <= 1
 x91 <= 1
 x92 <= 1
 x93 <= 1
 x94 <= 1
 x95 <= 1
 x96 <= 1
 x97 <= 1
 x98 <= 1
 x99 <= 1
End
